data;

param num_top:=6;

#nodes and edges of the physical network
param n := 10;

set E := (1,2) (1,3) (1,7) (2,4) (2,7) (3,5) (4,8) (5,6) (5,7) (6,7) (6,9) (7,8) (7,9) (8,10) (9,10) ;

#nodes and edges of the virtual networks
set Nl[1] := 10 6 3 1 ;
set Nl[2] := 5 7 10 1 ;
set Nl[3] := 6 1 9 4 ;
set Nl[4] := 9 5 10 3 ;
set Nl[5] := 10 3 5 7 ;
set Nl[6] := 4 1 5 3 ;

set El[1] := (6,10) (3,6) (1,3) (1,10) (1,6) (3,10) ;
set El[2] := (5,7) (7,10) (1,10) (1,5) (1,7) (5,10) ;
set El[3] := (1,6) (1,9) (4,9) (4,6) (1,4) (6,9) ;
set El[4] := (5,9) (5,10) (3,10) (3,9) (9,10) (3,5) ;
set El[5] := (3,10) (3,5) (5,7) (7,10) (3,7) (5,10) ;
set El[6] := (1,4) (1,5) (3,5) (3,4) (4,5) (1,3) ;
